p edge 440 1760
e 1 57
e 1 77
e 1 166
e 1 287
e 2 148
e 2 288
e 2 344
e 2 403
e 3 71
e 3 364
e 3 374
e 3 408
e 4 100
e 4 104
e 4 318
e 4 422
e 5 45
e 5 172
e 5 293
e 5 346
e 6 11
e 6 279
e 6 348
e 6 373
e 7 29
e 7 243
e 7 275
e 7 323
e 8 115
e 8 132
e 8 222
e 8 388
e 9 7
e 9 295
e 9 391
e 9 431
e 10 29
e 10 246
e 10 344
e 10 424
e 11 5
e 11 60
e 11 256
e 11 303
e 12 93
e 12 115
e 12 162
e 12 255
e 13 82
e 13 217
e 13 248
e 13 311
e 14 140
e 14 167
e 14 216
e 14 347
e 15 170
e 15 199
e 15 260
e 15 406
e 16 75
e 16 99
e 16 198
e 16 209
e 17 103
e 17 127
e 17 160
e 17 196
e 18 42
e 18 282
e 18 410
e 18 417
e 19 57
e 19 119
e 19 142
e 19 264
e 20 102
e 20 244
e 20 278
e 20 292
e 21 110
e 21 201
e 21 259
e 21 314
e 22 63
e 22 73
e 22 337
e 22 428
e 23 2
e 23 25
e 23 222
e 23 377
e 24 141
e 24 184
e 24 213
e 24 437
e 25 22
e 25 131
e 25 242
e 25 256
e 26 1
e 26 66
e 26 97
e 26 254
e 27 344
e 27 361
e 27 408
e 27 440
e 28 9
e 28 268
e 28 313
e 28 340
e 29 288
e 29 302
e 29 396
e 29 429
e 30 75
e 30 80
e 30 105
e 30 291
e 31 75
e 31 262
e 31 306
e 31 328
e 32 80
e 32 201
e 32 305
e 32 334
e 33 47
e 33 168
e 33 341
e 33 353
e 34 158
e 34 274
e 34 340
e 34 351
e 35 270
e 35 305
e 35 321
e 35 361
e 36 17
e 36 237
e 36 305
e 36 378
e 37 15
e 37 377
e 37 403
e 37 424
e 38 98
e 38 145
e 38 357
e 38 358
e 39 6
e 39 140
e 39 231
e 39 312
e 40 98
e 40 225
e 40 230
e 40 263
e 41 81
e 41 128
e 41 325
e 41 426
e 42 296
e 42 338
e 42 342
e 42 359
e 43 87
e 43 357
e 43 387
e 43 390
e 44 149
e 44 223
e 44 266
e 44 434
e 45 13
e 45 52
e 45 58
e 45 333
e 46 1
e 46 29
e 46 205
e 46 253
e 47 15
e 47 32
e 47 118
e 47 422
e 48 34
e 48 117
e 48 372
e 48 384
e 49 57
e 49 230
e 49 314
e 49 413
e 50 4
e 50 104
e 50 131
e 50 155
e 51 292
e 51 336
e 51 391
e 51 393
e 52 189
e 52 232
e 52 237
e 52 382
e 53 41
e 53 291
e 53 302
e 53 335
e 54 24
e 54 40
e 54 73
e 54 388
e 55 20
e 55 249
e 55 277
e 55 372
e 56 261
e 56 277
e 56 337
e 56 361
e 57 3
e 57 30
e 57 290
e 57 369
e 58 86
e 58 298
e 58 371
e 58 407
e 59 112
e 59 152
e 59 170
e 59 271
e 60 100
e 60 113
e 60 208
e 60 215
e 61 90
e 61 217
e 61 262
e 61 362
e 62 8
e 62 210
e 62 213
e 62 394
e 63 21
e 63 104
e 63 114
e 63 197
e 64 121
e 64 144
e 64 335
e 64 404
e 65 36
e 65 227
e 65 351
e 65 369
e 66 24
e 66 189
e 66 275
e 66 420
e 67 34
e 67 190
e 67 300
e 67 304
e 68 14
e 68 156
e 68 208
e 68 314
e 69 100
e 69 185
e 69 296
e 69 307
e 70 183
e 70 211
e 70 227
e 70 408
e 71 137
e 71 148
e 71 184
e 71 280
e 72 73
e 72 110
e 72 160
e 72 343
e 73 75
e 73 83
e 73 319
e 73 338
e 74 13
e 74 195
e 74 401
e 74 422
e 75 123
e 75 125
e 75 200
e 75 400
e 76 64
e 76 117
e 76 224
e 76 312
e 77 83
e 77 211
e 77 213
e 77 338
e 78 249
e 78 354
e 78 369
e 78 414
e 79 16
e 79 60
e 79 227
e 79 387
e 80 52
e 80 82
e 80 173
e 80 422
e 81 33
e 81 118
e 81 201
e 81 373
e 82 35
e 82 96
e 82 105
e 82 227
e 83 121
e 83 154
e 83 257
e 83 438
e 84 72
e 84 166
e 84 238
e 84 294
e 85 75
e 85 365
e 85 390
e 85 419
e 86 81
e 86 101
e 86 138
e 86 148
e 87 124
e 87 136
e 87 187
e 87 383
e 88 100
e 88 191
e 88 248
e 88 337
e 89 38
e 89 196
e 89 402
e 89 417
e 90 75
e 90 271
e 90 383
e 90 437
e 91 92
e 91 183
e 91 212
e 91 248
e 92 150
e 92 186
e 92 278
e 92 432
e 93 248
e 93 389
e 93 406
e 93 427
e 94 59
e 94 74
e 94 203
e 94 401
e 95 37
e 95 126
e 95 262
e 95 429
e 96 202
e 96 238
e 96 278
e 96 289
e 97 25
e 97 69
e 97 350
e 97 413
e 98 4
e 98 276
e 98 309
e 98 347
e 99 26
e 99 37
e 99 346
e 99 437
e 100 8
e 100 71
e 100 307
e 100 415
e 101 30
e 101 191
e 101 249
e 101 343
e 102 20
e 102 21
e 102 28
e 102 253
e 103 15
e 103 112
e 103 268
e 103 321
e 104 91
e 104 225
e 104 228
e 104 286
e 105 65
e 105 65
e 105 200
e 105 413
e 106 19
e 106 261
e 106 341
e 106 419
e 107 174
e 107 178
e 107 233
e 107 328
e 108 43
e 108 95
e 108 253
e 108 354
e 109 342
e 109 377
e 109 388
e 109 401
e 110 32
e 110 303
e 110 367
e 110 406
e 111 61
e 111 214
e 111 330
e 111 374
e 112 38
e 112 82
e 112 276
e 112 385
e 113 61
e 113 304
e 113 417
e 113 426
e 114 1
e 114 223
e 114 262
e 114 318
e 115 102
e 115 125
e 115 173
e 115 217
e 116 22
e 116 73
e 116 74
e 116 195
e 117 46
e 117 234
e 117 251
e 117 435
e 118 276
e 118 286
e 118 316
e 118 431
e 119 144
e 119 217
e 119 375
e 119 395
e 120 218
e 120 295
e 120 340
e 120 356
e 121 109
e 121 265
e 121 381
e 121 387
e 122 159
e 122 216
e 122 312
e 122 361
e 123 79
e 123 240
e 123 263
e 123 337
e 124 13
e 124 49
e 124 108
e 124 158
e 125 13
e 125 51
e 125 331
e 125 361
e 126 115
e 126 146
e 126 229
e 126 397
e 127 192
e 127 365
e 127 398
e 127 424
e 128 207
e 128 217
e 128 334
e 128 393
e 129 169
e 129 205
e 129 241
e 129 288
e 130 139
e 130 176
e 130 203
e 130 416
e 131 39
e 131 116
e 131 273
e 131 301
e 132 20
e 132 43
e 132 45
e 132 303
e 133 219
e 133 224
e 133 274
e 133 411
e 134 93
e 134 120
e 134 123
e 134 423
e 135 14
e 135 214
e 135 430
e 135 435
e 136 32
e 136 118
e 136 311
e 136 376
e 137 62
e 137 71
e 137 120
e 137 146
e 138 223
e 138 395
e 138 439
e 138 439
e 139 175
e 139 203
e 139 242
e 139 395
e 140 157
e 140 342
e 140 343
e 140 352
e 141 18
e 141 89
e 141 92
e 141 230
e 142 37
e 142 57
e 142 116
e 142 394
e 143 7
e 143 100
e 143 329
e 143 419
e 144 85
e 144 137
e 144 161
e 144 430
e 145 122
e 145 136
e 145 150
e 145 177
e 146 181
e 146 190
e 146 223
e 146 358
e 147 5
e 147 38
e 147 61
e 147 210
e 148 4
e 148 260
e 148 274
e 148 333
e 149 233
e 149 358
e 149 381
e 149 434
e 150 49
e 150 99
e 150 335
e 150 411
e 151 51
e 151 62
e 151 181
e 151 278
e 152 168
e 152 220
e 152 250
e 152 335
e 153 14
e 153 146
e 153 208
e 153 256
e 154 59
e 154 230
e 154 368
e 154 415
e 155 77
e 155 116
e 155 176
e 155 406
e 156 186
e 156 403
e 156 407
e 156 409
e 157 7
e 157 82
e 157 342
e 157 368
e 158 201
e 158 227
e 158 266
e 158 345
e 159 141
e 159 249
e 159 412
e 159 415
e 160 20
e 160 42
e 160 187
e 160 385
e 161 152
e 161 159
e 161 238
e 161 297
e 162 17
e 162 38
e 162 343
e 162 409
e 163 48
e 163 245
e 163 279
e 163 425
e 164 111
e 164 173
e 164 190
e 164 277
e 165 142
e 165 226
e 165 243
e 165 249
e 166 110
e 166 261
e 166 340
e 166 370
e 167 37
e 167 237
e 167 272
e 167 376
e 168 139
e 168 269
e 168 353
e 168 389
e 169 195
e 169 212
e 169 242
e 169 324
e 170 119
e 170 169
e 170 343
e 170 428
e 171 215
e 171 266
e 171 352
e 171 377
e 172 61
e 172 106
e 172 254
e 172 424
e 173 14
e 173 21
e 173 242
e 173 422
e 174 290
e 174 346
e 174 352
e 174 417
e 175 149
e 175 244
e 175 284
e 175 289
e 176 65
e 176 79
e 176 110
e 176 188
e 177 39
e 177 253
e 177 392
e 177 425
e 178 126
e 178 202
e 178 275
e 178 387
e 179 29
e 179 155
e 179 190
e 179 251
e 180 74
e 180 198
e 180 294
e 180 338
e 181 23
e 181 30
e 181 128
e 181 231
e 182 48
e 182 158
e 182 191
e 182 304
e 183 157
e 183 289
e 183 308
e 183 330
e 184 170
e 184 221
e 184 306
e 184 352
e 185 15
e 185 171
e 185 352
e 185 421
e 186 99
e 186 151
e 186 276
e 186 415
e 187 26
e 187 39
e 187 235
e 187 299
e 188 69
e 188 151
e 188 163
e 188 292
e 189 52
e 189 84
e 189 98
e 189 205
e 190 7
e 190 125
e 190 199
e 190 359
e 191 149
e 191 181
e 191 364
e 191 405
e 192 50
e 192 113
e 192 154
e 192 155
e 193 256
e 193 311
e 193 353
e 193 379
e 194 192
e 194 201
e 194 313
e 194 396
e 195 122
e 195 246
e 195 264
e 195 363
e 196 49
e 196 175
e 196 395
e 196 397
e 197 156
e 197 239
e 197 274
e 197 422
e 198 220
e 198 242
e 198 284
e 198 326
e 199 138
e 199 158
e 199 289
e 199 336
e 200 98
e 200 172
e 200 228
e 200 270
e 201 104
e 201 136
e 201 152
e 201 381
e 202 3
e 202 53
e 202 305
e 202 436
e 203 25
e 203 45
e 203 68
e 203 218
e 204 17
e 204 130
e 204 217
e 204 423
e 205 73
e 205 90
e 205 106
e 205 291
e 206 212
e 206 252
e 206 280
e 206 339
e 207 168
e 207 265
e 207 277
e 207 289
e 208 39
e 208 45
e 208 91
e 208 302
e 209 45
e 209 248
e 209 297
e 209 425
e 210 36
e 210 142
e 210 192
e 210 192
e 211 76
e 211 187
e 211 226
e 211 397
e 212 203
e 212 363
e 212 392
e 212 405
e 213 132
e 213 276
e 213 365
e 213 436
e 214 130
e 214 390
e 214 411
e 214 414
e 215 79
e 215 219
e 215 236
e 215 318
e 216 70
e 216 94
e 216 142
e 216 168
e 217 13
e 217 218
e 217 310
e 217 335
e 218 66
e 218 91
e 218 323
e 218 427
e 219 141
e 219 179
e 219 287
e 219 308
e 220 83
e 220 116
e 220 140
e 220 228
e 221 96
e 221 303
e 221 310
e 221 360
e 222 199
e 222 201
e 222 232
e 222 297
e 223 115
e 223 157
e 223 217
e 223 346
e 224 187
e 224 258
e 224 295
e 224 399
e 225 50
e 225 84
e 225 117
e 225 287
e 226 162
e 226 166
e 226 259
e 226 324
e 227 234
e 227 280
e 227 383
e 227 383
e 228 46
e 228 160
e 228 162
e 228 429
e 229 28
e 229 52
e 229 79
e 229 209
e 230 77
e 230 127
e 230 286
e 230 295
e 231 155
e 231 216
e 231 309
e 231 428
e 232 23
e 232 69
e 232 180
e 232 387
e 233 36
e 233 255
e 233 335
e 233 373
e 234 224
e 234 278
e 234 293
e 234 385
e 235 70
e 235 132
e 235 176
e 235 376
e 236 10
e 236 235
e 236 249
e 236 293
e 237 111
e 237 315
e 237 329
e 237 344
e 238 48
e 238 102
e 238 283
e 238 332
e 239 75
e 239 123
e 239 247
e 239 415
e 240 178
e 240 199
e 240 307
e 240 369
e 241 24
e 241 237
e 241 287
e 241 415
e 242 17
e 242 149
e 242 232
e 242 330
e 243 82
e 243 319
e 243 352
e 243 428
e 244 71
e 244 356
e 244 394
e 244 404
e 245 4
e 245 177
e 245 247
e 245 423
e 246 99
e 246 147
e 246 398
e 246 404
e 247 192
e 247 307
e 247 310
e 247 361
e 248 22
e 248 80
e 248 257
e 248 351
e 249 33
e 249 280
e 249 317
e 249 436
e 250 173
e 250 231
e 250 271
e 250 354
e 251 348
e 251 357
e 251 370
e 251 435
e 252 66
e 252 169
e 252 231
e 252 390
e 253 299
e 253 377
e 253 383
e 253 400
e 254 23
e 254 302
e 254 331
e 254 369
e 255 146
e 255 175
e 255 219
e 255 378
e 256 93
e 256 177
e 256 255
e 256 425
e 257 80
e 257 209
e 257 318
e 257 345
e 258 78
e 258 227
e 258 312
e 258 433
e 259 137
e 259 151
e 259 225
e 259 376
e 260 64
e 260 110
e 260 169
e 260 206
e 261 17
e 261 26
e 261 58
e 261 112
e 262 1
e 262 118
e 262 139
e 262 180
e 263 55
e 263 290
e 263 397
e 263 400
e 264 97
e 264 134
e 264 255
e 264 342
e 265 71
e 265 184
e 265 300
e 265 315
e 266 70
e 266 203
e 266 264
e 266 316
e 267 55
e 267 84
e 267 283
e 267 285
e 268 22
e 268 76
e 268 111
e 268 154
e 269 159
e 269 189
e 269 202
e 269 304
e 270 33
e 270 39
e 270 79
e 270 125
e 271 143
e 271 234
e 271 289
e 271 302
e 272 42
e 272 289
e 272 322
e 272 403
e 273 80
e 273 275
e 273 400
e 273 438
e 274 93
e 274 133
e 274 134
e 274 405
e 275 293
e 275 300
e 275 315
e 275 382
e 276 164
e 276 257
e 276 342
e 276 369
e 277 137
e 277 171
e 277 231
e 277 423
e 278 13
e 278 94
e 278 159
e 278 431
e 279 265
e 279 317
e 279 318
e 279 434
e 280 21
e 280 118
e 280 181
e 280 355
e 281 162
e 281 217
e 281 352
e 281 412
e 282 43
e 282 260
e 282 314
e 282 410
e 283 105
e 283 108
e 283 119
e 283 159
e 284 83
e 284 219
e 284 239
e 284 350
e 285 195
e 285 311
e 285 332
e 285 382
e 286 200
e 286 300
e 286 311
e 286 337
e 287 5
e 287 31
e 287 128
e 287 239
e 288 43
e 288 88
e 288 250
e 288 375
e 289 73
e 289 93
e 289 301
e 289 395
e 290 73
e 290 204
e 290 405
e 290 409
e 291 36
e 291 136
e 291 155
e 291 376
e 292 161
e 292 195
e 292 399
e 292 404
e 293 14
e 293 85
e 293 130
e 293 265
e 294 203
e 294 215
e 294 232
e 294 345
e 295 107
e 295 145
e 295 254
e 295 438
e 296 114
e 296 151
e 296 379
e 296 406
e 297 6
e 297 101
e 297 401
e 297 436
e 298 35
e 298 118
e 298 168
e 298 191
e 299 128
e 299 263
e 299 327
e 299 367
e 300 34
e 300 227
e 300 248
e 300 438
e 301 106
e 301 134
e 301 163
e 301 435
e 302 69
e 302 110
e 302 380
e 302 393
e 303 15
e 303 113
e 303 194
e 303 235
e 304 18
e 304 26
e 304 109
e 304 377
e 305 11
e 305 106
e 305 304
e 305 432
e 306 44
e 306 111
e 306 294
e 306 410
e 307 157
e 307 339
e 307 375
e 307 394
e 308 83
e 308 97
e 308 426
e 308 428
e 309 64
e 309 267
e 309 273
e 309 281
e 310 95
e 310 97
e 310 227
e 310 375
e 311 33
e 311 85
e 311 202
e 311 373
e 312 43
e 312 292
e 312 306
e 312 347
e 313 161
e 313 388
e 313 416
e 313 418
e 314 48
e 314 56
e 314 67
e 314 210
e 315 161
e 315 320
e 315 370
e 315 387
e 316 51
e 316 90
e 316 258
e 316 357
e 317 73
e 317 179
e 317 383
e 317 425
e 318 58
e 318 67
e 318 336
e 318 413
e 319 36
e 319 51
e 319 121
e 319 240
e 320 297
e 320 302
e 320 341
e 320 370
e 321 23
e 321 131
e 321 240
e 321 330
e 322 149
e 322 173
e 322 355
e 322 388
e 323 40
e 323 75
e 323 126
e 323 215
e 324 314
e 324 344
e 324 363
e 324 436
e 325 349
e 325 370
e 325 383
e 325 425
e 326 35
e 326 90
e 326 184
e 326 354
e 327 6
e 327 86
e 327 127
e 327 172
e 328 174
e 328 182
e 328 230
e 328 390
e 329 1
e 329 209
e 329 412
e 329 439
e 330 178
e 330 223
e 330 272
e 330 297
e 331 22
e 331 108
e 331 201
e 331 338
e 332 43
e 332 66
e 332 194
e 332 286
e 333 47
e 333 120
e 333 191
e 333 360
e 334 8
e 334 29
e 334 68
e 334 434
e 335 75
e 335 150
e 335 162
e 335 372
e 336 69
e 336 222
e 336 316
e 336 345
e 337 31
e 337 102
e 337 103
e 337 322
e 338 205
e 338 263
e 338 274
e 338 374
e 339 77
e 339 125
e 339 224
e 339 414
e 340 224
e 340 245
e 340 259
e 340 347
e 341 157
e 341 232
e 341 235
e 341 369
e 342 199
e 342 274
e 342 282
e 342 388
e 343 102
e 343 106
e 343 127
e 343 224
e 344 130
e 344 198
e 344 251
e 344 434
e 345 213
e 345 229
e 345 265
e 345 325
e 346 281
e 346 329
e 346 352
e 346 426
e 347 96
e 347 323
e 347 331
e 347 385
e 348 73
e 348 107
e 348 208
e 348 369
e 349 304
e 349 333
e 349 424
e 349 429
e 350 114
e 350 137
e 350 239
e 350 359
e 351 5
e 351 20
e 351 31
e 351 187
e 352 100
e 352 203
e 352 312
e 352 418
e 353 16
e 353 86
e 353 150
e 353 368
e 354 126
e 354 297
e 354 343
e 354 347
e 355 55
e 355 70
e 355 153
e 355 324
e 356 62
e 356 78
e 356 189
e 356 309
e 357 100
e 357 157
e 357 351
e 357 386
e 358 45
e 358 136
e 358 238
e 358 334
e 359 101
e 359 124
e 359 393
e 359 404
e 360 2
e 360 237
e 360 296
e 360 340
e 361 82
e 361 87
e 361 144
e 361 409
e 362 68
e 362 105
e 362 148
e 362 365
e 363 62
e 363 274
e 363 305
e 363 406
e 364 24
e 364 78
e 364 207
e 364 239
e 365 71
e 365 148
e 365 347
e 365 374
e 366 155
e 366 259
e 366 331
e 366 368
e 367 71
e 367 245
e 367 369
e 367 430
e 368 85
e 368 125
e 368 157
e 368 267
e 369 34
e 369 230
e 369 249
e 369 356
e 370 12
e 370 135
e 370 197
e 370 237
e 371 165
e 371 186
e 371 316
e 371 380
e 372 87
e 372 379
e 372 385
e 372 419
e 373 194
e 373 235
e 373 249
e 373 300
e 374 168
e 374 200
e 374 336
e 374 377
e 375 23
e 375 223
e 375 238
e 375 289
e 376 31
e 376 177
e 376 209
e 376 282
e 377 209
e 377 257
e 377 279
e 377 328
e 378 105
e 378 124
e 378 198
e 378 342
e 379 35
e 379 46
e 379 87
e 379 201
e 380 221
e 380 283
e 380 332
e 380 434
e 381 39
e 381 118
e 381 135
e 381 373
e 382 171
e 382 188
e 382 204
e 382 248
e 383 30
e 383 42
e 383 67
e 383 300
e 384 9
e 384 119
e 384 241
e 384 260
e 385 3
e 385 141
e 385 176
e 385 427
e 386 17
e 386 29
e 386 44
e 386 225
e 387 154
e 387 225
e 387 286
e 387 433
e 388 63
e 388 134
e 388 339
e 388 423
e 389 168
e 389 171
e 389 239
e 389 425
e 390 162
e 390 177
e 390 358
e 390 436
e 391 35
e 391 56
e 391 201
e 391 429
e 392 106
e 392 116
e 392 361
e 392 435
e 393 36
e 393 54
e 393 243
e 393 415
e 394 27
e 394 234
e 394 272
e 394 429
e 395 102
e 395 164
e 395 165
e 395 373
e 396 153
e 396 157
e 396 180
e 396 242
e 397 116
e 397 189
e 397 301
e 397 423
e 398 72
e 398 249
e 398 268
e 398 435
e 399 129
e 399 318
e 399 385
e 399 402
e 400 14
e 400 173
e 400 290
e 400 380
e 401 80
e 401 202
e 401 298
e 401 371
e 402 105
e 402 118
e 402 317
e 402 440
e 403 3
e 403 112
e 403 184
e 403 394
e 404 60
e 404 299
e 404 377
e 404 389
e 405 39
e 405 64
e 405 287
e 405 321
e 406 10
e 406 189
e 406 244
e 406 280
e 407 101
e 407 201
e 407 341
e 407 414
e 408 16
e 408 195
e 408 241
e 408 268
e 409 220
e 409 270
e 409 291
e 409 417
e 410 105
e 410 230
e 410 284
e 410 314
e 411 106
e 411 214
e 411 216
e 411 309
e 412 20
e 412 43
e 412 191
e 412 308
e 413 125
e 413 154
e 413 184
e 413 362
e 414 13
e 414 61
e 414 339
e 414 430
e 415 11
e 415 99
e 415 287
e 415 396
e 416 21
e 416 91
e 416 319
e 416 366
e 417 64
e 417 67
e 417 361
e 417 432
e 418 17
e 418 70
e 418 89
e 418 419
e 419 65
e 419 267
e 419 286
e 419 325
e 420 169
e 420 175
e 420 281
e 420 306
e 421 116
e 421 207
e 421 274
e 421 410
e 422 136
e 422 141
e 422 203
e 422 249
e 423 37
e 423 62
e 423 115
e 423 155
e 424 237
e 424 279
e 424 375
e 424 431
e 425 51
e 425 289
e 425 373
e 425 408
e 426 21
e 426 251
e 426 302
e 426 367
e 427 28
e 427 29
e 427 94
e 427 392
e 428 7
e 428 167
e 428 182
e 428 291
e 429 183
e 429 193
e 429 246
e 429 331
e 430 1
e 430 126
e 430 181
e 430 217
e 431 173
e 431 309
e 431 332
e 431 399
e 432 27
e 432 129
e 432 252
e 432 379
e 433 333
e 433 340
e 433 417
e 433 440
e 434 14
e 434 29
e 434 86
e 434 323
e 435 4
e 435 18
e 435 85
e 435 260
e 436 292
e 436 364
e 436 386
e 436 420
e 437 49
e 437 96
e 437 160
e 437 313
e 438 166
e 438 175
e 438 216
e 438 406
e 439 110
e 439 147
e 439 208
e 439 372
e 440 104
e 440 136
e 440 290
e 440 436
